p cnf 10 48
 7 4 -1 0
 -7 -3 10 0
 -2 -10 -5 0
 -8 -3 6 0
 1 -5 9 0
 -9 8 -4 0
 3 -4 -10 0
 -9 -7 -3 0
 10 9 2 0
 -9 -1 8 0
 -9 8 -3 0
 -1 9 -2 0
 5 -8 -10 0
 -1 7 4 0
 4 8 -3 0
 -2 -5 9 0
 10 4 -8 0
 6 -3 2 0
 6 4 9 0
 -2 -8 4 0
 -4 6 3 0
 10 7 -5 0
 4 2 -9 0
 -3 -9 6 0
 3 -10 -8 0
 -1 8 10 0
 4 7 5 0
 -5 8 -6 0
 -6 9 -4 0
 -1 -8 3 0
 9 3 2 0
 -2 3 6 0
 -9 -5 8 0
 -8 -3 2 0
 6 -3 9 0
 7 -4 5 0
 -9 -7 2 0
 9 -8 -10 0
 -10 -8 5 0
 -10 7 -6 0
 4 -8 -6 0
 -8 6 -4 0
 -1 -4 -9 0
 8 7 -2 0
 -8 2 -10 0
 -3 -9 10 0
 -7 10 -9 0
 2 -3 -5 0
c 1 a_1
c 2 a_2
c 3 a_3
c 4 a_4
c 5 a_5
c 6 a_6
c 7 a_7
c 8 a_8
c 9 a_9
c 10 a_10
